30 30
20
3 3 7 27
3 4 0 26
3 5 13 25
3 6 27 0
3 7 0 0
3 8 3 0
3 9 0 7
3 10 0 16
3 11 27 19
3 13 27 6
3 14 10 16
3 16 10 0
3 19 3 8
3 25 13 0
4 3 3 27
4 4 6 23
4 6 6 8
4 8 6 0
4 9 6 14
11 30 16 0
% time elapsed: 86.96 s
% time elapsed: 86.96 s
%%%mzn-stat: initTime=0.000374
%%%mzn-stat: solveTime=86.8686
%%%mzn-stat: solutions=73
%%%mzn-stat: variables=41
%%%mzn-stat: propagators=25
%%%mzn-stat: propagations=60352276
%%%mzn-stat: nodes=13888816
%%%mzn-stat: failures=6941040
%%%mzn-stat: restarts=444
%%%mzn-stat: peakDepth=61
%%%mzn-stat-end
